22103
1 0 1 0 0 1 1 0 0 1 0 1 0 0 1 0 0 0 0 0 1 0 0 0 1 0 0 0 0 0 
6 11 6 2 6 5 2 9 2 14 5 20 6 20 2 20 0 0 5 11 2 9 5 2 5 20 2 24 5 5 5 11 6 9 20 20 24 9 2 0 11 14 9 6 9 0 6 20 11 14 5 2 14 5 6 20 0 5 11 14 0 0 20 11 11 11 5 0 5 5 6 6 11 0 9 20 5 20 2 5 20 11 6 0 2 0 2 9 20 5 2 9 2 11 11 5 2 6 5 6 6 11 0 11 2 11 11 11 0 20 14 6 2 11 11 5 24 9 14 9 0 6 11 20 6 9 5 9 11 9 0 9 9 6 6 14 9 9 20 0 0 20 20 0 20 9 11 0 2 0 